
Gurobi 10.0.0 (win64) logging started Fri Aug  9 18:27:17 2024

Set parameter LogFile to value "C:\Users\ealvarezq\Documents\GitHub\Comillas\Models\JointResearch\05. Models\06.Benchmarking\B.Operation_cost\IEEE118_ByStages_nc110/openStarNet_IEEE118_ByStages_nc110.log"
Set parameter Method to value 2
Set parameter MIPFocus to value 1
Set parameter Presolve to value 2
Set parameter RINS to value 100
Set parameter MIPGap to value 0.01
Set parameter Threads to value 9
Set parameter TimeLimit to value 259200
Set parameter IterationLimit to value 760000000
Gurobi Optimizer version 10.0.0 build v10.0.0rc2 (win64)

CPU model: Intel(R) Core(TM) i7-8700 CPU @ 3.20GHz, instruction set [SSE2|AVX|AVX2]
Thread count: 6 physical cores, 12 logical processors, using up to 9 threads

Optimize a model with 159613 rows, 112455 columns and 409885 nonzeros
Model fingerprint: 0xe5de7dde
Variable types: 112410 continuous, 45 integer (45 binary)
Coefficient statistics:
  Matrix range     [3e-04, 9e+03]
  Objective range  [1e+00, 1e+00]
  Bounds range     [1e-04, 6e+00]
  RHS range        [1e-04, 6e+00]
Presolve removed 105124 rows and 51839 columns
Presolve time: 0.83s
Presolved: 54489 rows, 60616 columns, 196759 nonzeros
Variable types: 60571 continuous, 45 integer (45 binary)
Root relaxation presolved: 54489 rows, 60616 columns, 196759 nonzeros

Root barrier log...

Ordering time: 0.03s

Barrier statistics:
 Dense cols : 45
 AA' NZ     : 2.764e+05
 Factor NZ  : 9.929e+05 (roughly 50 MB of memory)
 Factor Ops : 2.298e+07 (less than 1 second per iteration)
 Threads    : 8

                  Objective                Residual
Iter       Primal          Dual         Primal    Dual     Compl     Time
   0   7.18679693e+06 -7.37920709e+08  1.23e+01 1.24e+03  1.89e+04     2s
   1   2.32756041e+06 -2.57978414e+08  3.63e+00 7.61e-09  4.42e+03     2s
   2   4.59043908e+05 -1.26246651e+08  3.28e-01 5.24e-09  1.03e+03     2s
   3   2.70828635e+05 -1.57821491e+07  2.30e-02 1.55e-09  1.11e+02     2s
   4   1.58608309e+05 -2.01380713e+06  1.88e-03 1.47e-10  1.45e+01     2s
   5   7.81036510e+04 -5.43200358e+05  6.44e-04 3.70e-11  4.14e+00     2s
   6   3.89452130e+04 -1.36125992e+05  2.54e-04 8.39e-12  1.17e+00     2s
   7   1.77936796e+04 -4.96319468e+04  9.33e-05 1.44e-11  4.49e-01     2s
   8   6.86910891e+03 -1.41462474e+04  2.31e-05 2.00e-11  1.40e-01     2s
   9   5.17553170e+03 -7.14739491e+03  1.55e-05 2.27e-11  8.21e-02     2s
  10   3.29465912e+03 -3.01434521e+03  7.75e-06 3.31e-12  4.20e-02     2s
  11   2.31464594e+03 -3.12108138e+02  4.09e-06 6.42e-12  1.75e-02     2s
  12   1.91500546e+03  1.89955507e+02  2.67e-06 5.10e-11  1.15e-02     2s
  13   1.80425031e+03  4.41597956e+02  2.27e-06 1.92e-11  9.08e-03     2s
  14   1.55823386e+03  6.47745905e+02  1.40e-06 6.42e-12  6.07e-03     2s
  15   1.47282677e+03  8.08185732e+02  1.10e-06 5.17e-12  4.43e-03     2s
  16   1.35325684e+03  8.87779618e+02  7.34e-07 4.19e-12  3.10e-03     2s
  17   1.29732492e+03  9.78196575e+02  5.35e-07 4.32e-12  2.13e-03     2s
  18   1.25734292e+03  1.04491812e+03  3.91e-07 1.40e-11  1.42e-03     2s
  19   1.21227705e+03  1.07735482e+03  2.33e-07 5.11e-12  8.99e-04     2s
  20   1.20171484e+03  1.09931736e+03  1.94e-07 4.96e-12  6.82e-04     2s
  21   1.18941534e+03  1.11044697e+03  1.50e-07 3.57e-12  5.26e-04     2s
  22   1.17861548e+03  1.12396023e+03  1.11e-07 3.50e-12  3.64e-04     2s
  23   1.17026691e+03  1.13028938e+03  8.16e-08 4.45e-12  2.66e-04     2s
  24   1.15898172e+03  1.14033118e+03  4.16e-08 5.74e-12  1.24e-04     2s
  25   1.15374328e+03  1.14341479e+03  2.29e-08 6.06e-12  6.88e-05     2s
  26   1.15245813e+03  1.14437578e+03  1.83e-08 1.99e-11  5.39e-05     2s
  27   1.15159272e+03  1.14490893e+03  1.53e-08 3.58e-11  4.45e-05     2s
  28   1.15061004e+03  1.14560822e+03  1.19e-08 2.21e-11  3.33e-05     3s
  29   1.14890395e+03  1.14630821e+03  5.80e-09 1.11e-11  1.73e-05     3s
  30   1.14837916e+03  1.14682907e+03  4.09e-09 4.58e-12  1.03e-05     3s
  31   1.14777513e+03  1.14697876e+03  1.98e-09 4.50e-12  5.31e-06     3s
  32   1.14746294e+03  1.14709548e+03  4.02e-09 4.81e-12  2.45e-06     3s
  33   1.14733054e+03  1.14715883e+03  4.42e-09 4.66e-12  1.14e-06     3s
  34   1.14723799e+03  1.14719184e+03  2.14e-09 4.59e-12  3.08e-07     3s
  35   1.14720499e+03  1.14720193e+03  9.31e-09 9.25e-12  2.04e-08     3s
  36   1.14720452e+03  1.14720373e+03  4.39e-09 5.06e-12  5.24e-09     3s
  37   1.14720436e+03  1.14720408e+03  1.64e-09 2.95e-12  1.86e-09     3s
  38   1.14720430e+03  1.14720421e+03  5.12e-10 4.17e-12  6.17e-10     3s
  39   1.14720429e+03  1.14720427e+03  2.17e-10 5.70e-12  8.35e-11     3s

Barrier solved model in 39 iterations and 2.95 seconds (2.48 work units)
Optimal objective 1.14720429e+03


Root relaxation: objective 1.147204e+03, 5033 iterations, 2.99 seconds (2.98 work units)

    Nodes    |    Current Node    |     Objective Bounds      |     Work
 Expl Unexpl |  Obj  Depth IntInf | Incumbent    BestBd   Gap | It/Node Time

     0     0 1147.20428    0   40          - 1147.20428      -     -    4s
H    0     0                    20951.466292 1147.20428  94.5%     -   13s
H    0     0                    4315.2469923 1147.20428  73.4%     -   13s
H    0     0                    4279.0330650 1185.90833  72.3%     -   25s
     0     0 1185.90833    0   39 4279.03306 1185.90833  72.3%     -   25s
H    0     0                    4274.3137888 1185.90833  72.3%     -   31s
     0     0 1186.62707    0   40 4274.31379 1186.62707  72.2%     -   32s
     0     0 1186.62707    0   40 4274.31379 1186.62707  72.2%     -   32s
     0     0 1190.65607    0   40 4274.31379 1190.65607  72.1%     -   36s
     0     0 1192.59337    0   40 4274.31379 1192.59337  72.1%     -   37s
     0     0 1192.59371    0   40 4274.31379 1192.59371  72.1%     -   38s
     0     0 1192.59371    0   40 4274.31379 1192.59371  72.1%     -   38s
     0     0 1197.20961    0   41 4274.31379 1197.20961  72.0%     -   45s
H    0     0                    1933.3504455 1197.20961  38.1%     -   49s
     0     0 1197.27131    0   41 1933.35045 1197.27131  38.1%     -   49s
     0     0 1197.27522    0   41 1933.35045 1197.27522  38.1%     -   50s
     0     0 1199.30334    0   40 1933.35045 1199.30334  38.0%     -   55s
     0     0 1200.01961    0   41 1933.35045 1200.01961  37.9%     -   57s
     0     0 1200.03028    0   41 1933.35045 1200.03028  37.9%     -   57s
     0     0 1200.03289    0   41 1933.35045 1200.03289  37.9%     -   57s
     0     0 1200.42675    0   41 1933.35045 1200.42675  37.9%     -   60s
